  9	67
 14
  0	 55	122	 32	 28	 39	 95	 37	  2	106	104	 99	 69	135	
 14
  0	 60	  4	127	 71	  5	 72	 47	 10	 38	114	 77	105	135	
 14
  0	 40	 49	107	116	 19	 58	 86	 48	115	 15	 82	125	135	
 16
  0	 29	 25	 35	 96	 92	 42	102	  1	109	 51	118	 31	 68	 98	135	
 14
  0	 27	 54	 16	  7	 83	121	 74	 59	 94	 63	126	130	135	
 20
  0	 33	100	 50	 23	117	 18	 26	 90	 30	 85	 64	 97	131	 44	 46	111	 93	113	135	
 24
  0	  6	 17	 21	 13	 84	 80	 73	 43	 65	 88	132	 66	 67	133	110	134	 14	 36	 45	 81	103	112	135	
 16
  0	 12	 24	  9	 79	 76	 20	 91	  8	 75	 57	  3	124	 70	 87	135	
 20
  0	 56	 41	 34	123	 62	 22	108	101	 52	129	 89	119	 53	 61	 11	128	 78	120	135	
